[[86, 95, 94, 93, 92, 91, 82, 83, 84, 85, 77, 76, 75, 73, 74, 66, 67, 68, 59, 58, 65, 64, 55, 56, 57, 49, 47, 46, 48, 39, 40, 38, 37, 28, 29, 30, 31, 21, 22, 19, 20, 10, 11, 2, 12, 3, 4, 13, 14, 23], [15, 5, 6, 7, 8, 9, 18, 17, 16, 24, 25, 26, 27, 35, 36, 44, 34, 43, 42, 33, 32, 41, 50, 51, 60, 52, 53, 45, 54, 63, 62, 61, 72, 71, 70, 69, 78, 80, 81, 79, 88, 89, 90, 99, 98, 97, 96, 87]]